p cnf 256 1
256 0
w 1 0.403158
w 2 1 0.873808
w 2 -1 0.639332
w 3 2 0
w 3 -2 1
w 4 3 0
w 4 -3 1
w 5 4 0
w 5 -4 1
w 6 5 0.814339
w 6 -5 0.266364
w 7 6 0.28338
w 7 -6 0.51379
w 8 7 0.14061
w 8 -7 0.710085
w 9 8 0.851104
w 9 -8 0.020914
w 10 9 0.688363
w 10 -9 0.794075
w 11 10 0.580945
w 11 -10 0.343207
w 12 11 0.667894
w 12 -11 0.973498
w 13 12 0
w 13 -12 1
w 14 13 0.826057
w 14 -13 0.821364
w 15 14 0.96665
w 15 -14 0.798059
w 16 15 0
w 16 -15 1
w 17 1 0
w 17 -1 1
w 18 17 2 0.994411
w 18 17 -2 0.139351
w 18 -17 2 0.507603
w 18 -17 -2 0.794904
w 19 18 3 1
w 19 18 -3 0
w 19 -18 3 1
w 19 -18 -3 1
w 20 19 4 0
w 20 19 -4 1
w 20 -19 4 0
w 20 -19 -4 1
w 21 20 5 0
w 21 20 -5 0
w 21 -20 5 0
w 21 -20 -5 1
w 22 21 6 0
w 22 21 -6 1
w 22 -21 6 1
w 22 -21 -6 0
w 23 22 7 0.056794
w 23 22 -7 0.935577
w 23 -22 7 0.486572
w 23 -22 -7 0.443157
w 24 23 8 0.480385
w 24 23 -8 0.437568
w 24 -23 8 0.930899
w 24 -23 -8 0.987988
w 25 24 9 1
w 25 24 -9 1
w 25 -24 9 1
w 25 -24 -9 0
w 26 25 10 1
w 26 25 -10 0
w 26 -25 10 1
w 26 -25 -10 1
w 27 26 11 0.852838
w 27 26 -11 0.198151
w 27 -26 11 0.629994
w 27 -26 -11 0.202219
w 28 27 12 1
w 28 27 -12 1
w 28 -27 12 0
w 28 -27 -12 0
w 29 28 13 0
w 29 28 -13 1
w 29 -28 13 0
w 29 -28 -13 0
w 30 29 14 0.0199772
w 30 29 -14 0.683117
w 30 -29 14 0.26362
w 30 -29 -14 0.950877
w 31 30 15 0.496091
w 31 30 -15 0.161737
w 31 -30 15 0.876782
w 31 -30 -15 0.46942
w 32 31 16 0.32106
w 32 31 -16 0.89176
w 32 -31 16 0.665015
w 32 -31 -16 0.798015
w 33 17 1
w 33 -17 0
w 34 33 18 0.508372
w 34 33 -18 0.856735
w 34 -33 18 0.853073
w 34 -33 -18 0.672938
w 35 34 19 0.251978
w 35 34 -19 0.629976
w 35 -34 19 0.2502
w 35 -34 -19 0.54483
w 36 35 20 1
w 36 35 -20 0
w 36 -35 20 0
w 36 -35 -20 1
w 37 36 21 0.231985
w 37 36 -21 0.722765
w 37 -36 21 0.744113
w 37 -36 -21 0.903091
w 38 37 22 1
w 38 37 -22 1
w 38 -37 22 1
w 38 -37 -22 0
w 39 38 23 0
w 39 38 -23 1
w 39 -38 23 1
w 39 -38 -23 0
w 40 39 24 1
w 40 39 -24 0
w 40 -39 24 1
w 40 -39 -24 1
w 41 40 25 0
w 41 40 -25 1
w 41 -40 25 1
w 41 -40 -25 1
w 42 41 26 0.972942
w 42 41 -26 0.596547
w 42 -41 26 0.424542
w 42 -41 -26 0.766179
w 43 42 27 0.147307
w 43 42 -27 0.510292
w 43 -42 27 0.731624
w 43 -42 -27 0.366163
w 44 43 28 0
w 44 43 -28 1
w 44 -43 28 1
w 44 -43 -28 1
w 45 44 29 0.900181
w 45 44 -29 0.51138
w 45 -44 29 0.524733
w 45 -44 -29 0.20145
w 46 45 30 1
w 46 45 -30 0
w 46 -45 30 1
w 46 -45 -30 0
w 47 46 31 0
w 47 46 -31 1
w 47 -46 31 1
w 47 -46 -31 0
w 48 47 32 0.739258
w 48 47 -32 0.291536
w 48 -47 32 0.340699
w 48 -47 -32 0.1638
w 49 33 0
w 49 -33 1
w 50 49 34 0
w 50 49 -34 1
w 50 -49 34 1
w 50 -49 -34 1
w 51 50 35 1
w 51 50 -35 0
w 51 -50 35 0
w 51 -50 -35 0
w 52 51 36 0.536163
w 52 51 -36 0.890918
w 52 -51 36 0.911432
w 52 -51 -36 0.597346
w 53 52 37 0.270886
w 53 52 -37 0.0614025
w 53 -52 37 0.809209
w 53 -52 -37 0.712443
w 54 53 38 1
w 54 53 -38 1
w 54 -53 38 0
w 54 -53 -38 0
w 55 54 39 0
w 55 54 -39 0
w 55 -54 39 1
w 55 -54 -39 0
w 56 55 40 0.700469
w 56 55 -40 0.416162
w 56 -55 40 0.660618
w 56 -55 -40 0.377739
w 57 56 41 1
w 57 56 -41 1
w 57 -56 41 1
w 57 -56 -41 0
w 58 57 42 0.633917
w 58 57 -42 0.366552
w 58 -57 42 0.831525
w 58 -57 -42 0.231263
w 59 58 43 0
w 59 58 -43 1
w 59 -58 43 1
w 59 -58 -43 1
w 60 59 44 1
w 60 59 -44 0
w 60 -59 44 0
w 60 -59 -44 0
w 61 60 45 0.336086
w 61 60 -45 0.916079
w 61 -60 45 0.610482
w 61 -60 -45 0.0958485
w 62 61 46 0.0266442
w 62 61 -46 0.756466
w 62 -61 46 0.994286
w 62 -61 -46 0.426954
w 63 62 47 0.103734
w 63 62 -47 0.637065
w 63 -62 47 0.927191
w 63 -62 -47 0.579368
w 64 63 48 0.561108
w 64 63 -48 0.945919
w 64 -63 48 0.388682
w 64 -63 -48 0.792371
w 65 49 0
w 65 -49 1
w 66 65 50 1
w 66 65 -50 1
w 66 -65 50 0
w 66 -65 -50 1
w 67 66 51 0.529899
w 67 66 -51 0.35807
w 67 -66 51 0.13382
w 67 -66 -51 0.292224
w 68 67 52 0.0498991
w 68 67 -52 0.902706
w 68 -67 52 0.790004
w 68 -67 -52 0.666447
w 69 68 53 0.546471
w 69 68 -53 0.660733
w 69 -68 53 0.356305
w 69 -68 -53 0.375907
w 70 69 54 0.993369
w 70 69 -54 0.303098
w 70 -69 54 0.343835
w 70 -69 -54 0.550527
w 71 70 55 0.289755
w 71 70 -55 0.93921
w 71 -70 55 0.656577
w 71 -70 -55 0.416506
w 72 71 56 0
w 72 71 -56 1
w 72 -71 56 0
w 72 -71 -56 0
w 73 72 57 1
w 73 72 -57 0
w 73 -72 57 1
w 73 -72 -57 0
w 74 73 58 0
w 74 73 -58 1
w 74 -73 58 1
w 74 -73 -58 1
w 75 74 59 1
w 75 74 -59 0
w 75 -74 59 0
w 75 -74 -59 0
w 76 75 60 0.303483
w 76 75 -60 0.21352
w 76 -75 60 0.962552
w 76 -75 -60 0.85401
w 77 76 61 0
w 77 76 -61 1
w 77 -76 61 0
w 77 -76 -61 0
w 78 77 62 0
w 78 77 -62 1
w 78 -77 62 1
w 78 -77 -62 0
w 79 78 63 0
w 79 78 -63 0
w 79 -78 63 1
w 79 -78 -63 0
w 80 79 64 0.0498464
w 80 79 -64 0.307361
w 80 -79 64 0.751285
w 80 -79 -64 0.0378901
w 81 65 0.705094
w 81 -65 0.572405
w 82 81 66 0
w 82 81 -66 1
w 82 -81 66 0
w 82 -81 -66 0
w 83 82 67 0.172701
w 83 82 -67 0.774072
w 83 -82 67 0.1887
w 83 -82 -67 0.965921
w 84 83 68 0.857513
w 84 83 -68 0.189444
w 84 -83 68 0.984293
w 84 -83 -68 0.0596234
w 85 84 69 1
w 85 84 -69 0
w 85 -84 69 1
w 85 -84 -69 1
w 86 85 70 1
w 86 85 -70 0
w 86 -85 70 1
w 86 -85 -70 0
w 87 86 71 0.347091
w 87 86 -71 0.0408641
w 87 -86 71 0.548118
w 87 -86 -71 0.919496
w 88 87 72 1
w 88 87 -72 1
w 88 -87 72 0
w 88 -87 -72 1
w 89 88 73 0
w 89 88 -73 1
w 89 -88 73 1
w 89 -88 -73 1
w 90 89 74 0
w 90 89 -74 1
w 90 -89 74 0
w 90 -89 -74 1
w 91 90 75 1
w 91 90 -75 0
w 91 -90 75 0
w 91 -90 -75 1
w 92 91 76 0
w 92 91 -76 0
w 92 -91 76 1
w 92 -91 -76 1
w 93 92 77 0.424927
w 93 92 -77 0.735257
w 93 -92 77 0.625111
w 93 -92 -77 0.973045
w 94 93 78 0.0211014
w 94 93 -78 0.53637
w 94 -93 78 0.0570745
w 94 -93 -78 0.390934
w 95 94 79 1
w 95 94 -79 1
w 95 -94 79 1
w 95 -94 -79 0
w 96 95 80 1
w 96 95 -80 0
w 96 -95 80 0
w 96 -95 -80 1
w 97 81 0.95659
w 97 -81 0.0631262
w 98 97 82 0.7762
w 98 97 -82 0.874759
w 98 -97 82 0.390423
w 98 -97 -82 0.855165
w 99 98 83 0.972326
w 99 98 -83 0.243331
w 99 -98 83 0.503267
w 99 -98 -83 0.397252
w 100 99 84 0.128378
w 100 99 -84 0.370297
w 100 -99 84 0.63334
w 100 -99 -84 0.149479
w 101 100 85 0.690415
w 101 100 -85 0.540413
w 101 -100 85 0.325055
w 101 -100 -85 0.846158
w 102 101 86 1
w 102 101 -86 0
w 102 -101 86 0
w 102 -101 -86 0
w 103 102 87 0
w 103 102 -87 1
w 103 -102 87 1
w 103 -102 -87 1
w 104 103 88 0
w 104 103 -88 1
w 104 -103 88 1
w 104 -103 -88 1
w 105 104 89 0.852638
w 105 104 -89 0.322262
w 105 -104 89 0.805474
w 105 -104 -89 0.355904
w 106 105 90 0.784062
w 106 105 -90 0.484282
w 106 -105 90 0.0898108
w 106 -105 -90 0.417402
w 107 106 91 0.996478
w 107 106 -91 0.107817
w 107 -106 91 0.174175
w 107 -106 -91 0.321533
w 108 107 92 0.411748
w 108 107 -92 0.119693
w 108 -107 92 0.828616
w 108 -107 -92 0.841409
w 109 108 93 1
w 109 108 -93 1
w 109 -108 93 0
w 109 -108 -93 1
w 110 109 94 0.466189
w 110 109 -94 0.131625
w 110 -109 94 0.453352
w 110 -109 -94 0.399808
w 111 110 95 0
w 111 110 -95 1
w 111 -110 95 1
w 111 -110 -95 1
w 112 111 96 0.523336
w 112 111 -96 0.605029
w 112 -111 96 0.0926322
w 112 -111 -96 0.613147
w 113 97 0
w 113 -97 1
w 114 113 98 0.130248
w 114 113 -98 0.900569
w 114 -113 98 0.931158
w 114 -113 -98 0.0842223
w 115 114 99 1
w 115 114 -99 1
w 115 -114 99 1
w 115 -114 -99 0
w 116 115 100 0
w 116 115 -100 0
w 116 -115 100 0
w 116 -115 -100 1
w 117 116 101 1
w 117 116 -101 0
w 117 -116 101 1
w 117 -116 -101 0
w 118 117 102 0
w 118 117 -102 1
w 118 -117 102 0
w 118 -117 -102 0
w 119 118 103 1
w 119 118 -103 0
w 119 -118 103 1
w 119 -118 -103 1
w 120 119 104 1
w 120 119 -104 0
w 120 -119 104 1
w 120 -119 -104 0
w 121 120 105 0.342934
w 121 120 -105 0.760279
w 121 -120 105 0.782207
w 121 -120 -105 0.805382
w 122 121 106 0.751529
w 122 121 -106 0.67516
w 122 -121 106 0.983785
w 122 -121 -106 0.467225
w 123 122 107 0
w 123 122 -107 0
w 123 -122 107 1
w 123 -122 -107 0
w 124 123 108 0.735121
w 124 123 -108 0.739028
w 124 -123 108 0.826325
w 124 -123 -108 0.331691
w 125 124 109 0.436864
w 125 124 -109 0.0208928
w 125 -124 109 0.628481
w 125 -124 -109 0.0698348
w 126 125 110 1
w 126 125 -110 1
w 126 -125 110 0
w 126 -125 -110 0
w 127 126 111 0.381134
w 127 126 -111 0.624425
w 127 -126 111 0.440774
w 127 -126 -111 0.163341
w 128 127 112 1
w 128 127 -112 1
w 128 -127 112 0
w 128 -127 -112 0
w 129 113 0
w 129 -113 1
w 130 129 114 0.0183683
w 130 129 -114 0.862995
w 130 -129 114 0.647965
w 130 -129 -114 0.839183
w 131 130 115 0.386993
w 131 130 -115 0.665508
w 131 -130 115 0.929807
w 131 -130 -115 0.264174
w 132 131 116 0
w 132 131 -116 0
w 132 -131 116 0
w 132 -131 -116 1
w 133 132 117 0
w 133 132 -117 1
w 133 -132 117 1
w 133 -132 -117 0
w 134 133 118 0.126528
w 134 133 -118 0.684316
w 134 -133 118 0.217785
w 134 -133 -118 0.353278
w 135 134 119 0.322752
w 135 134 -119 0.563812
w 135 -134 119 0.981282
w 135 -134 -119 0.438846
w 136 135 120 1
w 136 135 -120 0
w 136 -135 120 1
w 136 -135 -120 0
w 137 136 121 0.122523
w 137 136 -121 0.504341
w 137 -136 121 0.829764
w 137 -136 -121 0.386697
w 138 137 122 0.780463
w 138 137 -122 0.279353
w 138 -137 122 0.77892
w 138 -137 -122 0.167652
w 139 138 123 1
w 139 138 -123 1
w 139 -138 123 1
w 139 -138 -123 0
w 140 139 124 0.112948
w 140 139 -124 0.596462
w 140 -139 124 0.512785
w 140 -139 -124 0.330733
w 141 140 125 0.111971
w 141 140 -125 0.653485
w 141 -140 125 0.513552
w 141 -140 -125 0.0932529
w 142 141 126 0
w 142 141 -126 1
w 142 -141 126 0
w 142 -141 -126 0
w 143 142 127 0.294129
w 143 142 -127 0.45917
w 143 -142 127 0.436077
w 143 -142 -127 0.123893
w 144 143 128 0.0427904
w 144 143 -128 0.904356
w 144 -143 128 0.12522
w 144 -143 -128 0.82171
w 145 129 1
w 145 -129 0
w 146 145 130 0.379501
w 146 145 -130 0.611605
w 146 -145 130 0.0758245
w 146 -145 -130 0.207969
w 147 146 131 0.672287
w 147 146 -131 0.720754
w 147 -146 131 0.0552862
w 147 -146 -131 0.622026
w 148 147 132 0.708772
w 148 147 -132 0.135578
w 148 -147 132 0.925978
w 148 -147 -132 0.801103
w 149 148 133 0.0188807
w 149 148 -133 0.195275
w 149 -148 133 0.0733428
w 149 -148 -133 0.950617
w 150 149 134 1
w 150 149 -134 0
w 150 -149 134 0
w 150 -149 -134 1
w 151 150 135 0
w 151 150 -135 0
w 151 -150 135 0
w 151 -150 -135 1
w 152 151 136 0.857085
w 152 151 -136 0.969161
w 152 -151 136 0.401842
w 152 -151 -136 0.93291
w 153 152 137 0
w 153 152 -137 1
w 153 -152 137 0
w 153 -152 -137 0
w 154 153 138 0
w 154 153 -138 1
w 154 -153 138 1
w 154 -153 -138 0
w 155 154 139 0.0994964
w 155 154 -139 0.675467
w 155 -154 139 0.886831
w 155 -154 -139 0.172839
w 156 155 140 0.376235
w 156 155 -140 0.705352
w 156 -155 140 0.0127778
w 156 -155 -140 0.989532
w 157 156 141 1
w 157 156 -141 1
w 157 -156 141 1
w 157 -156 -141 0
w 158 157 142 0
w 158 157 -142 1
w 158 -157 142 0
w 158 -157 -142 0
w 159 158 143 0
w 159 158 -143 0
w 159 -158 143 1
w 159 -158 -143 1
w 160 159 144 1
w 160 159 -144 1
w 160 -159 144 0
w 160 -159 -144 1
w 161 145 0.669495
w 161 -145 0.778167
w 162 161 146 0
w 162 161 -146 0
w 162 -161 146 1
w 162 -161 -146 1
w 163 162 147 0.842543
w 163 162 -147 0.922092
w 163 -162 147 0.74009
w 163 -162 -147 0.284805
w 164 163 148 1
w 164 163 -148 1
w 164 -163 148 1
w 164 -163 -148 0
w 165 164 149 0.592128
w 165 164 -149 0.484401
w 165 -164 149 0.0122567
w 165 -164 -149 0.835264
w 166 165 150 1
w 166 165 -150 0
w 166 -165 150 0
w 166 -165 -150 0
w 167 166 151 1
w 167 166 -151 0
w 167 -166 151 0
w 167 -166 -151 1
w 168 167 152 0.681453
w 168 167 -152 0.82462
w 168 -167 152 0.409573
w 168 -167 -152 0.614014
w 169 168 153 1
w 169 168 -153 1
w 169 -168 153 0
w 169 -168 -153 0
w 170 169 154 0.548491
w 170 169 -154 0.515183
w 170 -169 154 0.491504
w 170 -169 -154 0.253482
w 171 170 155 0
w 171 170 -155 1
w 171 -170 155 0
w 171 -170 -155 1
w 172 171 156 1
w 172 171 -156 0
w 172 -171 156 0
w 172 -171 -156 0
w 173 172 157 1
w 173 172 -157 0
w 173 -172 157 1
w 173 -172 -157 1
w 174 173 158 0.867996
w 174 173 -158 0.367605
w 174 -173 158 0.108597
w 174 -173 -158 0.482009
w 175 174 159 0.360713
w 175 174 -159 0.0181155
w 175 -174 159 0.0696526
w 175 -174 -159 0.897634
w 176 175 160 0.618144
w 176 175 -160 0.412817
w 176 -175 160 0.475003
w 176 -175 -160 0.871626
w 177 161 0
w 177 -161 1
w 178 177 162 0.513049
w 178 177 -162 0.47753
w 178 -177 162 0.7376
w 178 -177 -162 0.670198
w 179 178 163 0
w 179 178 -163 0
w 179 -178 163 0
w 179 -178 -163 1
w 180 179 164 0.235017
w 180 179 -164 0.59134
w 180 -179 164 0.456478
w 180 -179 -164 0.934042
w 181 180 165 1
w 181 180 -165 1
w 181 -180 165 0
w 181 -180 -165 0
w 182 181 166 1
w 182 181 -166 0
w 182 -181 166 1
w 182 -181 -166 1
w 183 182 167 0
w 183 182 -167 1
w 183 -182 167 0
w 183 -182 -167 1
w 184 183 168 0.841599
w 184 183 -168 0.683656
w 184 -183 168 0.454126
w 184 -183 -168 0.579199
w 185 184 169 0
w 185 184 -169 0
w 185 -184 169 1
w 185 -184 -169 0
w 186 185 170 1
w 186 185 -170 0
w 186 -185 170 1
w 186 -185 -170 0
w 187 186 171 1
w 187 186 -171 0
w 187 -186 171 1
w 187 -186 -171 1
w 188 187 172 0
w 188 187 -172 0
w 188 -187 172 0
w 188 -187 -172 1
w 189 188 173 1
w 189 188 -173 0
w 189 -188 173 1
w 189 -188 -173 1
w 190 189 174 0.64117
w 190 189 -174 0.426735
w 190 -189 174 0.0705049
w 190 -189 -174 0.220369
w 191 190 175 0.89734
w 191 190 -175 0.142951
w 191 -190 175 0.378566
w 191 -190 -175 0.839974
w 192 191 176 0
w 192 191 -176 1
w 192 -191 176 1
w 192 -191 -176 0
w 193 177 0
w 193 -177 1
w 194 193 178 0.28365
w 194 193 -178 0.0865071
w 194 -193 178 0.114718
w 194 -193 -178 0.841334
w 195 194 179 1
w 195 194 -179 1
w 195 -194 179 1
w 195 -194 -179 0
w 196 195 180 0
w 196 195 -180 1
w 196 -195 180 0
w 196 -195 -180 1
w 197 196 181 0
w 197 196 -181 0
w 197 -196 181 0
w 197 -196 -181 1
w 198 197 182 0.69328
w 198 197 -182 0.601446
w 198 -197 182 0.65117
w 198 -197 -182 0.163611
w 199 198 183 1
w 199 198 -183 0
w 199 -198 183 0
w 199 -198 -183 0
w 200 199 184 0
w 200 199 -184 0
w 200 -199 184 0
w 200 -199 -184 1
w 201 200 185 0.771644
w 201 200 -185 0.435945
w 201 -200 185 0.623102
w 201 -200 -185 0.358834
w 202 201 186 1
w 202 201 -186 0
w 202 -201 186 1
w 202 -201 -186 1
w 203 202 187 0
w 203 202 -187 1
w 203 -202 187 0
w 203 -202 -187 0
w 204 203 188 0.154213
w 204 203 -188 0.587522
w 204 -203 188 0.177751
w 204 -203 -188 0.805383
w 205 204 189 0.669235
w 205 204 -189 0.474179
w 205 -204 189 0.303795
w 205 -204 -189 0.0187057
w 206 205 190 1
w 206 205 -190 1
w 206 -205 190 0
w 206 -205 -190 1
w 207 206 191 1
w 207 206 -191 1
w 207 -206 191 0
w 207 -206 -191 1
w 208 207 192 0
w 208 207 -192 0
w 208 -207 192 1
w 208 -207 -192 1
w 209 193 0.17528
w 209 -193 0.251377
w 210 209 194 1
w 210 209 -194 0
w 210 -209 194 0
w 210 -209 -194 0
w 211 210 195 0.477892
w 211 210 -195 0.484274
w 211 -210 195 0.483686
w 211 -210 -195 0.952071
w 212 211 196 0.502392
w 212 211 -196 0.224363
w 212 -211 196 0.411631
w 212 -211 -196 0.520588
w 213 212 197 0.441468
w 213 212 -197 0.652991
w 213 -212 197 0.855574
w 213 -212 -197 0.242948
w 214 213 198 0
w 214 213 -198 1
w 214 -213 198 0
w 214 -213 -198 0
w 215 214 199 1
w 215 214 -199 1
w 215 -214 199 0
w 215 -214 -199 1
w 216 215 200 1
w 216 215 -200 0
w 216 -215 200 0
w 216 -215 -200 0
w 217 216 201 0.636727
w 217 216 -201 0.253869
w 217 -216 201 0.945429
w 217 -216 -201 0.424796
w 218 217 202 0.169793
w 218 217 -202 0.836427
w 218 -217 202 0.276849
w 218 -217 -202 0.748212
w 219 218 203 1
w 219 218 -203 0
w 219 -218 203 0
w 219 -218 -203 1
w 220 219 204 0
w 220 219 -204 1
w 220 -219 204 0
w 220 -219 -204 1
w 221 220 205 1
w 221 220 -205 1
w 221 -220 205 1
w 221 -220 -205 0
w 222 221 206 0
w 222 221 -206 1
w 222 -221 206 1
w 222 -221 -206 0
w 223 222 207 1
w 223 222 -207 0
w 223 -222 207 0
w 223 -222 -207 0
w 224 223 208 1
w 224 223 -208 1
w 224 -223 208 0
w 224 -223 -208 0
w 225 209 0.309649
w 225 -209 0.431683
w 226 225 210 1
w 226 225 -210 0
w 226 -225 210 0
w 226 -225 -210 0
w 227 226 211 0
w 227 226 -211 1
w 227 -226 211 1
w 227 -226 -211 1
w 228 227 212 0.14692
w 228 227 -212 0.467336
w 228 -227 212 0.680634
w 228 -227 -212 0.591601
w 229 228 213 1
w 229 228 -213 0
w 229 -228 213 0
w 229 -228 -213 1
w 230 229 214 0
w 230 229 -214 1
w 230 -229 214 1
w 230 -229 -214 0
w 231 230 215 0.0020365
w 231 230 -215 0.147722
w 231 -230 215 0.121701
w 231 -230 -215 0.43372
w 232 231 216 1
w 232 231 -216 0
w 232 -231 216 1
w 232 -231 -216 1
w 233 232 217 0.429692
w 233 232 -217 0.53487
w 233 -232 217 0.00271861
w 233 -232 -217 0.0876614
w 234 233 218 0.702001
w 234 233 -218 0.234581
w 234 -233 218 0.228437
w 234 -233 -218 0.382635
w 235 234 219 0.452346
w 235 234 -219 0.197073
w 235 -234 219 0.632648
w 235 -234 -219 0.426187
w 236 235 220 0.907846
w 236 235 -220 0.0953897
w 236 -235 220 0.56234
w 236 -235 -220 0.40804
w 237 236 221 0.374392
w 237 236 -221 0.410076
w 237 -236 221 0.777467
w 237 -236 -221 0.496092
w 238 237 222 0.142341
w 238 237 -222 0.448285
w 238 -237 222 0.860378
w 238 -237 -222 0.083982
w 239 238 223 1
w 239 238 -223 1
w 239 -238 223 0
w 239 -238 -223 0
w 240 239 224 0.451044
w 240 239 -224 0.430575
w 240 -239 224 0.835916
w 240 -239 -224 0.67948
w 241 225 0.662098
w 241 -225 0.131827
w 242 241 226 0
w 242 241 -226 0
w 242 -241 226 1
w 242 -241 -226 0
w 243 242 227 0
w 243 242 -227 0
w 243 -242 227 0
w 243 -242 -227 1
w 244 243 228 0
w 244 243 -228 0
w 244 -243 228 0
w 244 -243 -228 1
w 245 244 229 0.28694
w 245 244 -229 0.828507
w 245 -244 229 0.450738
w 245 -244 -229 0.800613
w 246 245 230 0.179312
w 246 245 -230 0.401949
w 246 -245 230 0.969494
w 246 -245 -230 0.609886
w 247 246 231 1
w 247 246 -231 1
w 247 -246 231 1
w 247 -246 -231 0
w 248 247 232 1
w 248 247 -232 0
w 248 -247 232 1
w 248 -247 -232 0
w 249 248 233 0.58037
w 249 248 -233 0.00793462
w 249 -248 233 0.275369
w 249 -248 -233 0.309427
w 250 249 234 0
w 250 249 -234 1
w 250 -249 234 0
w 250 -249 -234 0
w 251 250 235 1
w 251 250 -235 1
w 251 -250 235 1
w 251 -250 -235 0
w 252 251 236 0.554969
w 252 251 -236 0.248081
w 252 -251 236 0.0284452
w 252 -251 -236 0.524463
w 253 252 237 0.26631
w 253 252 -237 0.173437
w 253 -252 237 0.281063
w 253 -252 -237 0.166274
w 254 253 238 0.714442
w 254 253 -238 0.360984
w 254 -253 238 0.293054
w 254 -253 -238 0.940146
w 255 254 239 0.285273
w 255 254 -239 0.520516
w 255 -254 239 0.76622
w 255 -254 -239 0.560642
w 256 255 240 0.794864
w 256 255 -240 0.896627
w 256 -255 240 0.36452
w 256 -255 -240 0.688012